20 43 8
1 6 11 16 5 10 15 20
1 2 1
2 3 1
3 4 1
4 5 1
6 7 1
7 8 2
8 9 2
9 10 1
11 12 1
12 13 2
13 14 2
14 15 1
16 17 1
17 18 1
18 19 1
19 20 1
1 6 20
6 11 20
11 16 20
2 7 10
7 12 10
12 17 10
3 8 5
8 13 5
13 18 5
4 9 10
9 14 10
14 19 10
5 10 20
10 15 20
15 20 20
6 2 1
11 7 1
16 12 1
7 3 2
12 8 2
17 13 2
3 9 2
8 14 2
13 19 2
4 10 1
9 15 1
14 20 1